p cnf 36 447
1 2 3 4 5 6 7 8 9 10 11 12 0
13 14 15 16 17 18 19 20 21 22 23 24 0
25 26 27 28 29 30 31 32 33 34 35 36 0
-1 -3 0
-1 -15 0
-1 -27 0
-13 -3 0
-13 -15 0
-13 -27 0
-25 -3 0
-25 -15 0
-25 -27 0
-1 -4 0
-1 -16 0
-1 -28 0
-13 -4 0
-13 -16 0
-13 -28 0
-25 -4 0
-25 -16 0
-25 -28 0
-1 -5 0
-1 -17 0
-1 -29 0
-13 -5 0
-13 -17 0
-13 -29 0
-25 -5 0
-25 -17 0
-25 -29 0
-1 -7 0
-1 -19 0
-1 -31 0
-13 -7 0
-13 -19 0
-13 -31 0
-25 -7 0
-25 -19 0
-25 -31 0
-1 -8 0
-1 -20 0
-1 -32 0
-13 -8 0
-13 -20 0
-13 -32 0
-25 -8 0
-25 -20 0
-25 -32 0
-1 -9 0
-1 -21 0
-1 -33 0
-13 -9 0
-13 -21 0
-13 -33 0
-25 -9 0
-25 -21 0
-25 -33 0
-1 -10 0
-1 -22 0
-1 -34 0
-13 -10 0
-13 -22 0
-13 -34 0
-25 -10 0
-25 -22 0
-25 -34 0
-1 -11 0
-1 -23 0
-1 -35 0
-13 -11 0
-13 -23 0
-13 -35 0
-25 -11 0
-25 -23 0
-25 -35 0
-2 -3 0
-2 -15 0
-2 -27 0
-14 -3 0
-14 -15 0
-14 -27 0
-26 -3 0
-26 -15 0
-26 -27 0
-2 -5 0
-2 -17 0
-2 -29 0
-14 -5 0
-14 -17 0
-14 -29 0
-26 -5 0
-26 -17 0
-26 -29 0
-2 -7 0
-2 -19 0
-2 -31 0
-14 -7 0
-14 -19 0
-14 -31 0
-26 -7 0
-26 -19 0
-26 -31 0
-2 -8 0
-2 -20 0
-2 -32 0
-14 -8 0
-14 -20 0
-14 -32 0
-26 -8 0
-26 -20 0
-26 -32 0
-2 -12 0
-2 -24 0
-2 -36 0
-14 -12 0
-14 -24 0
-14 -36 0
-26 -12 0
-26 -24 0
-26 -36 0
-3 -5 0
-3 -17 0
-3 -29 0
-15 -5 0
-15 -17 0
-15 -29 0
-27 -5 0
-27 -17 0
-27 -29 0
-3 -6 0
-3 -18 0
-3 -30 0
-15 -6 0
-15 -18 0
-15 -30 0
-27 -6 0
-27 -18 0
-27 -30 0
-3 -7 0
-3 -19 0
-3 -31 0
-15 -7 0
-15 -19 0
-15 -31 0
-27 -7 0
-27 -19 0
-27 -31 0
-3 -8 0
-3 -20 0
-3 -32 0
-15 -8 0
-15 -20 0
-15 -32 0
-27 -8 0
-27 -20 0
-27 -32 0
-3 -9 0
-3 -21 0
-3 -33 0
-15 -9 0
-15 -21 0
-15 -33 0
-27 -9 0
-27 -21 0
-27 -33 0
-3 -10 0
-3 -22 0
-3 -34 0
-15 -10 0
-15 -22 0
-15 -34 0
-27 -10 0
-27 -22 0
-27 -34 0
-3 -11 0
-3 -23 0
-3 -35 0
-15 -11 0
-15 -23 0
-15 -35 0
-27 -11 0
-27 -23 0
-27 -35 0
-4 -5 0
-4 -17 0
-4 -29 0
-16 -5 0
-16 -17 0
-16 -29 0
-28 -5 0
-28 -17 0
-28 -29 0
-4 -6 0
-4 -18 0
-4 -30 0
-16 -6 0
-16 -18 0
-16 -30 0
-28 -6 0
-28 -18 0
-28 -30 0
-4 -8 0
-4 -20 0
-4 -32 0
-16 -8 0
-16 -20 0
-16 -32 0
-28 -8 0
-28 -20 0
-28 -32 0
-4 -10 0
-4 -22 0
-4 -34 0
-16 -10 0
-16 -22 0
-16 -34 0
-28 -10 0
-28 -22 0
-28 -34 0
-5 -8 0
-5 -20 0
-5 -32 0
-17 -8 0
-17 -20 0
-17 -32 0
-29 -8 0
-29 -20 0
-29 -32 0
-5 -11 0
-5 -23 0
-5 -35 0
-17 -11 0
-17 -23 0
-17 -35 0
-29 -11 0
-29 -23 0
-29 -35 0
-5 -12 0
-5 -24 0
-5 -36 0
-17 -12 0
-17 -24 0
-17 -36 0
-29 -12 0
-29 -24 0
-29 -36 0
-6 -7 0
-6 -19 0
-6 -31 0
-18 -7 0
-18 -19 0
-18 -31 0
-30 -7 0
-30 -19 0
-30 -31 0
-6 -10 0
-6 -22 0
-6 -34 0
-18 -10 0
-18 -22 0
-18 -34 0
-30 -10 0
-30 -22 0
-30 -34 0
-7 -9 0
-7 -21 0
-7 -33 0
-19 -9 0
-19 -21 0
-19 -33 0
-31 -9 0
-31 -21 0
-31 -33 0
-7 -12 0
-7 -24 0
-7 -36 0
-19 -12 0
-19 -24 0
-19 -36 0
-31 -12 0
-31 -24 0
-31 -36 0
-8 -9 0
-8 -21 0
-8 -33 0
-20 -9 0
-20 -21 0
-20 -33 0
-32 -9 0
-32 -21 0
-32 -33 0
-8 -10 0
-8 -22 0
-8 -34 0
-20 -10 0
-20 -22 0
-20 -34 0
-32 -10 0
-32 -22 0
-32 -34 0
-9 -10 0
-9 -22 0
-9 -34 0
-21 -10 0
-21 -22 0
-21 -34 0
-33 -10 0
-33 -22 0
-33 -34 0
-9 -12 0
-9 -24 0
-9 -36 0
-21 -12 0
-21 -24 0
-21 -36 0
-33 -12 0
-33 -24 0
-33 -36 0
-1 -2 0
-1 -6 0
-1 -12 0
-2 -4 0
-2 -6 0
-2 -9 0
-2 -10 0
-2 -11 0
-3 -4 0
-3 -12 0
-4 -7 0
-4 -9 0
-4 -11 0
-4 -12 0
-5 -6 0
-5 -7 0
-5 -9 0
-5 -10 0
-6 -8 0
-6 -9 0
-6 -11 0
-6 -12 0
-7 -8 0
-7 -10 0
-7 -11 0
-8 -11 0
-8 -12 0
-9 -11 0
-10 -11 0
-10 -12 0
-11 -12 0
-13 -14 0
-13 -18 0
-13 -24 0
-14 -16 0
-14 -18 0
-14 -21 0
-14 -22 0
-14 -23 0
-15 -16 0
-15 -24 0
-16 -19 0
-16 -21 0
-16 -23 0
-16 -24 0
-17 -18 0
-17 -19 0
-17 -21 0
-17 -22 0
-18 -20 0
-18 -21 0
-18 -23 0
-18 -24 0
-19 -20 0
-19 -22 0
-19 -23 0
-20 -23 0
-20 -24 0
-21 -23 0
-22 -23 0
-22 -24 0
-23 -24 0
-25 -26 0
-25 -30 0
-25 -36 0
-26 -28 0
-26 -30 0
-26 -33 0
-26 -34 0
-26 -35 0
-27 -28 0
-27 -36 0
-28 -31 0
-28 -33 0
-28 -35 0
-28 -36 0
-29 -30 0
-29 -31 0
-29 -33 0
-29 -34 0
-30 -32 0
-30 -33 0
-30 -35 0
-30 -36 0
-31 -32 0
-31 -34 0
-31 -35 0
-32 -35 0
-32 -36 0
-33 -35 0
-34 -35 0
-34 -36 0
-35 -36 0
-1 -13 0
-1 -25 0
-13 -25 0
-2 -14 0
-2 -26 0
-14 -26 0
-3 -15 0
-3 -27 0
-15 -27 0
-4 -16 0
-4 -28 0
-16 -28 0
-5 -17 0
-5 -29 0
-17 -29 0
-6 -18 0
-6 -30 0
-18 -30 0
-7 -19 0
-7 -31 0
-19 -31 0
-8 -20 0
-8 -32 0
-20 -32 0
-9 -21 0
-9 -33 0
-21 -33 0
-10 -22 0
-10 -34 0
-22 -34 0
-11 -23 0
-11 -35 0
-23 -35 0
-12 -24 0
-12 -36 0
-24 -36 0
